17	4	3
17	16	15	17	51	44	20	
0	0	0	0	0	5	3	4	1	8	5	3	2	3	4
1	1	6	4	10	10	1	3	10	6	9	3	6	10	17
9	5	5	4	5	1	4	10	3	3	4	2	6	11
10	3	3	4	8	8	4	4	10	6	6	3	5	7	8
4	9	1	5	3	8	2	9	4	7	6	2	13	17
200	10	7	2	6	2	1	9	5	2	6	2	15	17
50	6	10	4	2	10	1	6	2	10	1	3	11	12	14
100	3	8	10	4	1	10	5	1	3	8	3	9	12	15
175	10	6	3	2	5	10	2	8	10	7	3	13	16	17
100	6	3	6	7	3	7	8	2	1	4	2	15	17
250	10	9	8	10	8	2	4	6	7	6	2	16	17
25	10	10	8	8	1	6	6	7	8	6	1	17
7	2	4	3	8	7	9	6	2	9	8	2	17	17
3	4	8	10	5	10	3	8	1	1	7	1	17
6	10	6	5	10	7	4	4	5	5	5	2	17	17
3	8	10	1	3	8	2	6	2	8	3	1	17
0	0	0	0	0	7	8	8	3	4	6	0
